NAME :  IRP
COMMENT : 
TYPE :  CVRP
DIMENSION : 	12
EDGE_WEIGHT_TYPE : 	EUC_2D
CAPACITY : 	766
NODE_COORD_SECTION
1	308	496
2	222	337
3	213	329
4	255	475
5	496	133
6	396	130
7	183	68
8	36	268
9	131	270
10	249	433
11	263	242
12	307	412
DEMAND_SECTION
1	0
2	158
3	388
4	220
5	208
6	128
7	108
8	66
9	256
10	234
11	292
12	200
DEPOT_SECTION
	1
	-1
EOF
